100
32
11
30
29
32
1
2
9
11
4
27
11
2
12
9
8
1
17
1
17
3
1
2
1
3
3
4
16
1
2
1
18
9
1
1
1
4
1
2
8
1
17
1
2
6
2
1
17
1
3
1
1
1
1
1
3
4
1
3
1
3
1
2
3
2
1
17
22
2
1
1
2
9
1
17
17
1
1
18
4
2
3
4
1
1
4
1
3
1
1
18
5
7
4
1
2
1
2
3
1
2